68, 384
352, 292
481, 160
98, 118
112, 102
385, 403
123, 101
318, 133
247, 245
471, 265
328, 441
272, 181
371, 325
243, 187
264, 426
378, 463
403, 219
252, 127
127, 349
459, 374
463, 432
436, 256
212, 388
486, 231
361, 420
452, 206
509, 458
306, 408
408, 232
257, 106
518, 444
55, 129
104, 147
377, 264
163, 411
62, 406
351, 195
102, 119
423, 287
405, 323
242, 139
452, 231
266, 349
536, 334
119, 149
321, 418
96, 322
302, 108
174, 380
500, 219
139, 340
375, 464
488, 346
254, 459
518, 186
257, 410
442, 154
172, 171
279, 146
309, 407
263, 457
457, 435
415, 105
540, 113
259, 431
65, 366
362, 107
507, 445
198, 347